6 100 410
0 14 68
1 73 2 8 72
2 13 47 24 71
3 37 44 9 42
4 34 63 19 49
5 58 98 9 10
6 33 42 18 52
7 18 98 9 21
8 24 79 14 18
9 17 28 3 56
10 72 67 14 4
11 78 63 8 9
12 42 48 8 74
13 1 2 13 44
14 2 28 18 20
15 32 82 4 49
16 97 38 24 47
17 39 53 14 48
18 87 1 8 11
19 42 77 18 65
20 83 27 13 27
21 79 92 2 10
22 22 39 9 40
23 58 32 18 4
24 53 84 3 59
25 38 37 24 66
26 63 59 8 75
27 42 88 24 52
28 32 88 14 2
29 38 23 13 43
30 63 32 24 17
31 22 73 23 41
32 88 94 9 51
33 58 78 13 1
34 43 62 14 70
35 73 1 14 69
36 17 32 18 30
37 87 79 24 64
38 12 24 4 71
39 48 53 8 64
40 48 23 13 10
41 7 37 4 22
42 98 77 14 70
43 34 12 18 64
